1 of 1 MIP starts provided solutions.
MIP start 'm1' defined initial solution with objective 102154.0000.
Tried aggregator 1 time.
MIP Presolve eliminated 0 rows and 1 columns.
Reduced MIP has 90100 rows, 60300 columns, and 18210000 nonzeros.
Reduced MIP has 30000 binaries, 0 generals, 0 SOSs, and 0 indicators.
Presolve time = 9.65 sec. (4732.59 ticks)
Probing time = 0.32 sec. (178.84 ticks)
Tried aggregator 1 time.
Reduced MIP has 90100 rows, 60300 columns, and 18210000 nonzeros.
Reduced MIP has 30000 binaries, 0 generals, 0 SOSs, and 0 indicators.
Presolve time = 11.93 sec. (5507.98 ticks)
Probing time = 0.32 sec. (178.82 ticks)
Clique table members: 100.
MIP emphasis: balance optimality and feasibility.
MIP search method: dynamic search.
Parallel mode: none, using 1 thread.
Root relaxation solution time = 25.17 sec. (17893.39 ticks)

        Nodes                                         Cuts/
   Node  Left     Objective  IInf  Best Integer    Best Bound    ItCnt     Gap

*     0+    0                       102154.0000   2.30296e+07    18911     --- 
      0     0   102155.0000     5   102154.0000   102155.0000    18911    0.00%

Root node processing (before b&c):
  Real time             =   71.48 sec. (58455.72 ticks)
Sequential b&c:
  Real time             =    0.00 sec. (0.00 ticks)
                          ------------
Total (root+branch&cut) =   71.48 sec. (58455.72 ticks)
